50 3
1 2 1 
16 19 2
12 16 2
3 5 2
19 0 3
0 3 3
17 20 3
0 3 1
16 19 1
13 16 2
13 17 2
20 23 1
23 2 1
15 17 2
10 14 3
19 23 2
21 1 1
14 18 1
9 12 1
16 19 3
17 21 2
16 19 1
3 5 3
1 5 2
11 15 1
14 16 2
11 15 3
19 22 1
18 20 3
13 17 1
5 8 3
2 6 1
12 16 2
22 2 3
20 1 3
0 3 3
1 5 3
18 20 3
5 9 1
13 17 1
7 10 2
23 1 1
5 7 2
13 14 2
7 11 1
21 0 3
19 21 1
23 1 3
2 4 3
6 9 1
10 13 2
